400
500
348
348
348
348
347
347
346
345
345
344
342
341
341
340
339
339
337
332
331
331
330
328
328
328
328
327
327
325
324
324
323
323
323
322
320
320
319
318
318
316
316
316
316
315
315
315
314
313
313
311
310
310
307
307
306
305
305
303
301
301
301
301
301
300
300
299
298
297
296
296
295
293
293
291
288
288
286
286
286
285
284
283
282
282
282
281
281
279
279
278
278
278
276
275
273
273
273
273
272
272
271
271
270
268
267
266
266
265
265
265
265
264
264
261
260
259
257
257
257
257
257
256
252
251
251
250
249
249
248
247
246
246
246
245
244
244
242
242
242
241
241
241
240
240
239
238
237
235
234
233
233
233
233
232
231
230
229
227
226
225
225
224
224
224
223
223
223
223
222
220
220
220
220
219
218
218
217
216
216
216
215
214
214
212
210
210
209
208
207
207
207
207
206
206
206
205
205
205
205
201
201
201
201
200
198
197
197
197
196
192
192
191
190
188
187
187
186
185
184
183
183
182
182
181
180
179
179
178
178
177
177
177
177
175
175
175
174
174
173
172
172
172
170
167
166
166
166
166
166
166
165
164
164
162
162
161
160
158
158
158
158
157
157
155
155
154
152
151
150
149
149
148
148
147
146
144
144
142
138
137
137
136
135
135
135
134
133
133
132
132
132
131
130
130
129
129
129
127
126
126
125
124
124
123
122
120
120
120
119
119
119
118
116
116
116
116
115
115
115
114
111
111
110
110
110
110
108
107
107
106
105
104
104
102
102
100
98
98
98
96
95
95
95
94
94
93
91
90
88
88
87
87
87
86
85
85
84
84
84
83
83
83
83
82
79
79
79
79
78
78
77
76
75
75
74
73
73
72
72
72
72
72
71
70
67
65
65
64
62
62
61
59
57
56
55
53
51
51
50
50
